NAME /Users/henri/Research/solvers/instances/idol-instances/robust/collection/cbp_Subramanyam_et_al_2020/CapBud_N5_12/models/uncertain_technology_matrix/
ROWS
 N  OBJ
 L  capacity
 L  c_255
 L  c_256
 L  c_257
 L  c_258
 L  c_259
COLUMNS
    MARKER    'MARKER'                 'INTORG'
    x_0        OBJ        -2.27084
    x_0        c_255      1
    x_0        capacity   0.454168
    x_1        OBJ        -4.5486
    x_1        c_256      1
    x_1        capacity   0.90972
    x_2        OBJ        -9.72083
    x_2        c_257      1
    x_2        capacity   1.94417
    x_3        OBJ        -8.33818
    x_3        c_258      1
    x_3        capacity   1.66764
    x_4        OBJ        -9.14791
    x_4        c_259      1
    x_4        capacity   1.82958
    y_0        OBJ        -1.81667
    y_0        c_255      1
    y_0        capacity   0.454168
    y_1        OBJ        -3.63888
    y_1        c_256      1
    y_1        capacity   0.90972
    y_2        OBJ        -7.77666
    y_2        c_257      1
    y_2        capacity   1.94417
    y_3        OBJ        -6.67055
    y_3        c_258      1
    y_3        capacity   1.66764
    y_4        OBJ        -7.31833
    y_4        c_259      1
    y_4        capacity   1.82958
    MARKER    'MARKER'                 'INTEND'
RHS
    RHS       capacity   17.0132
    RHS       c_255      1
    RHS       c_256      1
    RHS       c_257      1
    RHS       c_258      1
    RHS       c_259      1
BOUNDS
 LI BND       x_0        0
 UI BND       x_0        1
 LI BND       x_1        0
 UI BND       x_1        1
 LI BND       x_2        0
 UI BND       x_2        1
 LI BND       x_3        0
 UI BND       x_3        1
 LI BND       x_4        0
 UI BND       x_4        1
 LI BND       y_0        0
 UI BND       y_0        1
 LI BND       y_1        0
 UI BND       y_1        1
 LI BND       y_2        0
 UI BND       y_2        1
 LI BND       y_3        0
 UI BND       y_3        1
 LI BND       y_4        0
 UI BND       y_4        1
ENDATA
